(set-info :smt-lib-version 2.6)
(set-logic UFLIA)
(set-info :source |Benchmarks from the paper: "Extending Sledgehammer with SMT Solvers" by Jasmin Blanchette, Sascha Bohme, and Lawrence C. Paulson, CADE 2011.  Translated to SMT2 by Andrew Reynolds and Morgan Deters.|)
(set-info :category "industrial")
(set-info :status unknown)
(declare-sort S1 0)
(declare-sort S2 0)
(declare-sort S3 0)
(declare-sort S4 0)
(declare-sort S5 0)
(declare-sort S6 0)
(declare-sort S7 0)
(declare-sort S8 0)
(declare-sort S9 0)
(declare-sort S10 0)
(declare-sort S11 0)
(declare-sort S12 0)
(declare-sort S13 0)
(declare-sort S14 0)
(declare-sort S15 0)
(declare-sort S16 0)
(declare-sort S17 0)
(declare-sort S18 0)
(declare-sort S19 0)
(declare-sort S20 0)
(declare-sort S21 0)
(declare-sort S22 0)
(declare-sort S23 0)
(declare-sort S24 0)
(declare-sort S25 0)
(declare-sort S26 0)
(declare-sort S27 0)
(declare-sort S28 0)
(declare-sort S29 0)
(declare-fun f1 () S1)
(declare-fun f2 () S1)
(declare-fun f3 (S3 S2) S1)
(declare-fun f4 (S4 S3) S3)
(declare-fun f5 (S2) S4)
(declare-fun f6 (S5 S3) S1)
(declare-fun f7 (S2) S5)
(declare-fun f8 (S2) S4)
(declare-fun f9 () S3)
(declare-fun f10 (S3) S5)
(declare-fun f11 () S3)
(declare-fun f12 (S2) S4)
(declare-fun f13 (S6 S7) S2)
(declare-fun f14 (S8 S9) S6)
(declare-fun f15 (S10 S7) S8)
(declare-fun f16 () S10)
(declare-fun f17 () S7)
(declare-fun f18 (S11 S12) S9)
(declare-fun f19 () S11)
(declare-fun f20 () S12)
(declare-fun f21 () S7)
(declare-fun f22 () S3)
(declare-fun f23 (S13 S14) S9)
(declare-fun f24 () S13)
(declare-fun f25 (S12) S14)
(declare-fun f26 (S17 S16) S1)
(declare-fun f27 (S7 S15) S17)
(declare-fun f28 (S18) S3)
(declare-fun f29 (S19 Int) S18)
(declare-fun f30 () S19)
(declare-fun f31 (S20 S18) Int)
(declare-fun f32 () S20)
(declare-fun f33 (S22 S2) S18)
(declare-fun f34 (S23 S21) S22)
(declare-fun f35 () S23)
(declare-fun f36 (S3) S3)
(declare-fun f37 (S3) S5)
(declare-fun f38 (S24 S3) S2)
(declare-fun f39 () S24)
(declare-fun f40 () S1)
(declare-fun f41 () S9)
(declare-fun f42 (S25 S9) S9)
(declare-fun f43 (S26 S9) S25)
(declare-fun f44 () S26)
(declare-fun f45 () S22)
(declare-fun f46 (S9 S16 S16) S1)
(declare-fun f47 (S9 S16 S18 S16) S1)
(declare-fun f48 (S27) S4)
(declare-fun f49 (S28 S2) S4)
(declare-fun f50 (S27) S28)
(declare-fun f51 (S27 S24) S1)
(declare-fun f52 (S29 S2) S2)
(declare-fun f53 (S27 S2) S29)
(declare-fun f54 (S3) S1)
(declare-fun f55 (S27) S1)
(declare-fun f56 (S27 S24) S1)
(declare-fun f57 (S3) S4)
(assert (not (= f1 f2)))
(assert (forall ((?v0 S2) (?v1 S3) (?v2 S2)) (= (= (f3 (f4 (f5 ?v0) ?v1) ?v2) f1) (or (= ?v2 ?v0) (= (f6 (f7 ?v2) ?v1) f1)))))
(assert (forall ((?v0 S2) (?v1 S3) (?v2 S2)) (= (= (f3 (f4 (f8 ?v0) ?v1) ?v2) f1) (=> (not (= ?v2 ?v0)) (= (f3 ?v1 ?v2) f1)))))
(assert (forall ((?v0 S2)) (= (= (f3 f9 ?v0) f1) false)))
(assert (not (= (f6 (f10 f11) (f4 (f12 (f13 (f14 (f15 f16 f17) (f18 f19 f20)) f21)) f22)) f1)))
(assert (let ((?v_0 (f15 f16 f17))) (= (f6 (f10 (f4 (f12 (f13 (f14 ?v_0 (f18 f19 f20)) f21)) f11)) (f4 (f12 (f13 (f14 ?v_0 (f23 f24 (f25 f20))) f21)) f22)) f1)))
(assert (forall ((?v0 S3)) (= (f6 (f10 ?v0) f22) f1)))
(assert (forall ((?v0 S7) (?v1 S9) (?v2 S7) (?v3 S7) (?v4 S9) (?v5 S7)) (= (= (f13 (f14 (f15 f16 ?v0) ?v1) ?v2) (f13 (f14 (f15 f16 ?v3) ?v4) ?v5)) (and (= ?v0 ?v3) (and (= ?v1 ?v4) (= ?v2 ?v5))))))
(assert (forall ((?v0 S3) (?v1 S3) (?v2 S3)) (let ((?v_0 (f10 ?v2))) (=> (= (f6 (f10 ?v0) ?v1) f1) (=> (= (f6 ?v_0 ?v0) f1) (= (f6 ?v_0 ?v1) f1))))))
(assert (forall ((?v0 S3) (?v1 S2) (?v2 S3)) (let ((?v_0 (f10 ?v0)) (?v_1 (f12 ?v1))) (=> (= (f6 ?v_0 (f4 ?v_1 f22)) f1) (=> (= (f6 ?v_0 ?v2) f1) (= (f6 ?v_0 (f4 ?v_1 ?v2)) f1))))))
(assert (forall ((?v0 S3) (?v1 S7) (?v2 S9) (?v3 S7) (?v4 S7)) (let ((?v_0 (f10 ?v0)) (?v_1 (f14 (f15 f16 ?v1) ?v2))) (=> (= (f6 ?v_0 (f4 (f12 (f13 ?v_1 ?v3)) f22)) f1) (=> (forall ((?v5 S15) (?v6 S16)) (=> (= (f26 (f27 ?v3 ?v5) ?v6) f1) (= (f26 (f27 ?v4 ?v5) ?v6) f1))) (= (f6 ?v_0 (f4 (f12 (f13 ?v_1 ?v4)) f22)) f1))))))
(assert (forall ((?v0 S3) (?v1 S7) (?v2 S9) (?v3 S7) (?v4 S7)) (let ((?v_0 (f10 ?v0))) (=> (= (f6 ?v_0 (f4 (f12 (f13 (f14 (f15 f16 ?v1) ?v2) ?v3)) f22)) f1) (=> (forall ((?v5 S15) (?v6 S16)) (=> (= (f26 (f27 ?v4 ?v5) ?v6) f1) (= (f26 (f27 ?v1 ?v5) ?v6) f1))) (= (f6 ?v_0 (f4 (f12 (f13 (f14 (f15 f16 ?v4) ?v2) ?v3)) f22)) f1))))))
(assert (forall ((?v0 S3) (?v1 S7) (?v2 S9) (?v3 S7) (?v4 S7) (?v5 S7)) (let ((?v_0 (f10 ?v0))) (=> (= (f6 ?v_0 (f4 (f12 (f13 (f14 (f15 f16 ?v1) ?v2) ?v3)) f22)) f1) (=> (forall ((?v6 S15) (?v7 S16)) (=> (= (f26 (f27 ?v4 ?v6) ?v7) f1) (forall ((?v8 S16)) (=> (forall ((?v9 S15)) (=> (= (f26 (f27 ?v1 ?v9) ?v7) f1) (= (f26 (f27 ?v3 ?v9) ?v8) f1))) (= (f26 (f27 ?v5 ?v6) ?v8) f1))))) (= (f6 ?v_0 (f4 (f12 (f13 (f14 (f15 f16 ?v4) ?v2) ?v5)) f22)) f1))))))
(assert (forall ((?v0 S18) (?v1 S7) (?v2 S12) (?v3 S7)) (let ((?v_0 (f15 f16 ?v1))) (= (= (f3 (f28 ?v0) (f13 (f14 ?v_0 (f23 f24 (f25 ?v2))) ?v3)) f1) (= (f3 (f28 (f29 f30 (+ (f31 f32 ?v0) 1))) (f13 (f14 ?v_0 (f18 f19 ?v2)) ?v3)) f1)))))
(assert (forall ((?v0 S2) (?v1 S2) (?v2 S3)) (let ((?v_0 (f7 ?v0))) (=> (= (f6 ?v_0 (f4 (f12 ?v1) ?v2)) f1) (=> (=> (= ?v0 ?v1) false) (=> (=> (= (f6 ?v_0 ?v2) f1) false) false))))))
(assert (forall ((?v0 S2) (?v1 S3) (?v2 S2)) (let ((?v_0 (f7 ?v0))) (=> (=> (not (= (f6 ?v_0 ?v1) f1)) (= ?v0 ?v2)) (= (f6 ?v_0 (f4 (f12 ?v2) ?v1)) f1)))))
(assert (forall ((?v0 S2)) (=> (= (f6 (f7 ?v0) f22) f1) false)))
(assert (forall ((?v0 S21) (?v1 S7) (?v2 S9) (?v3 S7)) (= (f33 (f34 f35 ?v0) (f13 (f14 (f15 f16 ?v1) ?v2) ?v3)) (f29 f30 0))))
(assert (forall ((?v0 S2) (?v1 S3)) (not (= f22 (f4 (f12 ?v0) ?v1)))))
(assert (forall ((?v0 S2) (?v1 S3)) (not (= (f4 (f12 ?v0) ?v1) f22))))
(assert (forall ((?v0 S18) (?v1 S2)) (=> (= (f3 (f28 (f29 f30 (+ (f31 f32 ?v0) 1))) ?v1) f1) (= (f3 (f28 ?v0) ?v1) f1))))
(assert (forall ((?v0 S3) (?v1 S18)) (=> (forall ((?v2 S2)) (=> (= (f6 (f7 ?v2) ?v0) f1) (= (f3 (f28 (f29 f30 (+ (f31 f32 ?v1) 1))) ?v2) f1))) (forall ((?v2 S2)) (=> (= (f6 (f7 ?v2) ?v0) f1) (= (f3 (f28 ?v1) ?v2) f1))))))
(assert (forall ((?v0 S3) (?v1 S2)) (=> (= ?v0 f22) (not (= (f6 (f7 ?v1) ?v0) f1)))))
(assert (forall ((?v0 S3)) (= (= (f36 ?v0) f22) (forall ((?v1 S2)) (not (= (f3 ?v0 ?v1) f1))))))
(assert (forall ((?v0 S2)) (= (= (f6 (f7 ?v0) f22) f1) false)))
(assert (forall ((?v0 S3)) (= (= f22 (f36 ?v0)) (forall ((?v1 S2)) (not (= (f3 ?v0 ?v1) f1))))))
(assert (forall ((?v0 S3)) (= (forall ((?v1 S2)) (=> (= (f6 (f7 ?v1) f22) f1) (= (f3 ?v0 ?v1) f1))) true)))
(assert (forall ((?v0 S3)) (= (exists ((?v1 S2)) (and (= (f6 (f7 ?v1) f22) f1) (= (f3 ?v0 ?v1) f1))) false)))
(assert (forall ((?v0 S3)) (= (exists ((?v1 S2)) (= (f6 (f7 ?v1) ?v0) f1)) (not (= ?v0 f22)))))
(assert (forall ((?v0 S3)) (= (forall ((?v1 S2)) (not (= (f6 (f7 ?v1) ?v0) f1))) (= ?v0 f22))))
(assert (= f22 (f36 f9)))
(assert (forall ((?v0 S2) (?v1 S3)) (=> (= (f6 (f7 ?v0) ?v1) f1) (= (f4 (f12 ?v0) ?v1) ?v1))))
(assert (forall ((?v0 S2) (?v1 S3) (?v2 S2)) (let ((?v_0 (f7 ?v0))) (=> (= (f6 ?v_0 ?v1) f1) (= (f6 ?v_0 (f4 (f12 ?v2) ?v1)) f1)))))
(assert (forall ((?v0 S2) (?v1 S3) (?v2 S3)) (let ((?v_0 (f7 ?v0)) (?v_1 (f12 ?v0))) (=> (not (= (f6 ?v_0 ?v1) f1)) (=> (not (= (f6 ?v_0 ?v2) f1)) (= (= (f4 ?v_1 ?v1) (f4 ?v_1 ?v2)) (= ?v1 ?v2)))))))
(assert (forall ((?v0 S2) (?v1 S3) (?v2 S2)) (= (= (f3 (f4 (f12 ?v0) ?v1) ?v2) f1) (or (= ?v0 ?v2) (= (f3 ?v1 ?v2) f1)))))
(assert (forall ((?v0 S2) (?v1 S2) (?v2 S3)) (let ((?v_0 (f7 ?v0))) (= (= (f6 ?v_0 (f4 (f12 ?v1) ?v2)) f1) (or (= ?v0 ?v1) (= (f6 ?v_0 ?v2) f1))))))
(assert (forall ((?v0 S2) (?v1 S2) (?v2 S3)) (let ((?v_1 (f12 ?v0)) (?v_0 (f12 ?v1))) (= (f4 ?v_1 (f4 ?v_0 ?v2)) (f4 ?v_0 (f4 ?v_1 ?v2))))))
(assert (forall ((?v0 S2) (?v1 S3)) (let ((?v_0 (f12 ?v0))) (let ((?v_1 (f4 ?v_0 ?v1))) (= (f4 ?v_0 ?v_1) ?v_1)))))
(assert (forall ((?v0 S2) (?v1 S3)) (= (f4 (f12 ?v0) (f36 ?v1)) (f36 (f4 (f8 ?v0) ?v1)))))
(assert (forall ((?v0 S2) (?v1 S3)) (= (f4 (f12 ?v0) ?v1) (f36 (f4 (f5 ?v0) ?v1)))))
(assert (forall ((?v0 S2) (?v1 S3)) (= (f6 (f7 ?v0) (f4 (f12 ?v0) ?v1)) f1)))
(assert (forall ((?v0 S7) (?v1 S12) (?v2 S7)) (= (f3 (f28 (f29 f30 0)) (f13 (f14 (f15 f16 ?v0) (f18 f19 ?v1)) ?v2)) f1)))
(assert (forall ((?v0 S2) (?v1 S2)) (=> (= (f4 (f12 ?v0) f22) (f4 (f12 ?v1) f22)) (= ?v0 ?v1))))
(assert (forall ((?v0 S2) (?v1 S2)) (=> (= (f6 (f7 ?v0) (f4 (f12 ?v1) f22)) f1) (=> (=> (= ?v0 ?v1) false) false))))
(assert (forall ((?v0 S2) (?v1 S2) (?v2 S2) (?v3 S2)) (= (= (f4 (f12 ?v0) (f4 (f12 ?v1) f22)) (f4 (f12 ?v2) (f4 (f12 ?v3) f22))) (or (and (= ?v0 ?v2) (= ?v1 ?v3)) (and (= ?v0 ?v3) (= ?v1 ?v2))))))
(assert (forall ((?v0 S2) (?v1 S2)) (= (= (f6 (f7 ?v0) (f4 (f12 ?v1) f22)) f1) (= ?v0 ?v1))))
(assert (forall ((?v0 S3) (?v1 S3)) (= (= (f6 (f37 ?v0) ?v1) f1) (forall ((?v2 S18)) (=> (forall ((?v3 S2)) (=> (= (f6 (f7 ?v3) ?v0) f1) (= (f3 (f28 ?v2) ?v3) f1))) (forall ((?v3 S2)) (=> (= (f6 (f7 ?v3) ?v1) f1) (= (f3 (f28 ?v2) ?v3) f1))))))))
(assert (forall ((?v0 S2)) (= (f38 f39 (f4 (f12 ?v0) f22)) ?v0)))
(assert (forall ((?v0 S2)) (= (= (f3 f22 ?v0) f1) (= f40 f1))))
(assert (forall ((?v0 S2)) (= (= (f3 f22 ?v0) f1) (= f40 f1))))
(assert (forall ((?v0 S3) (?v1 S7)) (= (f6 (f10 ?v0) (f4 (f12 (f13 (f14 (f15 f16 ?v1) f41) ?v1)) f22)) f1)))
(assert (forall ((?v0 S3) (?v1 S7) (?v2 S9) (?v3 S7) (?v4 S9) (?v5 S7)) (let ((?v_0 (f10 ?v0)) (?v_1 (f15 f16 ?v1))) (=> (= (f6 ?v_0 (f4 (f12 (f13 (f14 ?v_1 ?v2) ?v3)) f22)) f1) (=> (= (f6 ?v_0 (f4 (f12 (f13 (f14 (f15 f16 ?v3) ?v4) ?v5)) f22)) f1) (= (f6 ?v_0 (f4 (f12 (f13 (f14 ?v_1 (f42 (f43 f44 ?v2) ?v4)) ?v5)) f22)) f1))))))
(assert (forall ((?v0 S7) (?v1 S9) (?v2 S7)) (= (f33 f45 (f13 (f14 (f15 f16 ?v0) ?v1) ?v2)) (f29 f30 0))))
(assert (forall ((?v0 S2)) (=> (forall ((?v1 S7) (?v2 S9) (?v3 S7)) (=> (= ?v0 (f13 (f14 (f15 f16 ?v1) ?v2) ?v3)) false)) false)))
(assert (forall ((?v0 S2) (?v1 S3)) (=> (= (f6 (f7 ?v0) ?v1) f1) (=> (forall ((?v2 S3)) (=> (= ?v1 (f4 (f12 ?v0) ?v2)) (=> (not (= (f6 (f7 ?v0) ?v2) f1)) false))) false))))
(assert (forall ((?v0 S2) (?v1 S3)) (=> (= (f6 (f7 ?v0) ?v1) f1) (exists ((?v2 S3)) (and (= ?v1 (f4 (f12 ?v0) ?v2)) (not (= (f6 (f7 ?v0) ?v2) f1)))))))
(assert (forall ((?v0 S9) (?v1 S9)) (not (= (f42 (f43 f44 ?v0) ?v1) f41))))
(assert (forall ((?v0 S9) (?v1 S9)) (not (= f41 (f42 (f43 f44 ?v0) ?v1)))))
(assert (forall ((?v0 S12)) (not (= f41 (f18 f19 ?v0)))))
(assert (forall ((?v0 S12)) (not (= (f18 f19 ?v0) f41))))
(assert (forall ((?v0 S12) (?v1 S9) (?v2 S9)) (not (= (f18 f19 ?v0) (f42 (f43 f44 ?v1) ?v2)))))
(assert (forall ((?v0 S9) (?v1 S9) (?v2 S12)) (not (= (f42 (f43 f44 ?v0) ?v1) (f18 f19 ?v2)))))
(assert (forall ((?v0 S3)) (=> (forall ((?v1 S2)) (=> (= (f6 (f7 ?v1) ?v0) f1) false)) (= ?v0 f22))))
(assert (forall ((?v0 S12) (?v1 S12)) (= (= (f18 f19 ?v0) (f18 f19 ?v1)) (= ?v0 ?v1))))
(assert (forall ((?v0 S9) (?v1 S9) (?v2 S9) (?v3 S9)) (= (= (f42 (f43 f44 ?v0) ?v1) (f42 (f43 f44 ?v2) ?v3)) (and (= ?v0 ?v2) (= ?v1 ?v3)))))
(assert (forall ((?v0 S7) (?v1 S3) (?v2 S9) (?v3 S7)) (=> (forall ((?v4 S15) (?v5 S16)) (=> (= (f26 (f27 ?v0 ?v4) ?v5) f1) (exists ((?v6 S7) (?v7 S7)) (and (= (f6 (f10 ?v1) (f4 (f12 (f13 (f14 (f15 f16 ?v6) ?v2) ?v7)) f22)) f1) (forall ((?v8 S16)) (=> (forall ((?v9 S15)) (=> (= (f26 (f27 ?v6 ?v9) ?v5) f1) (= (f26 (f27 ?v7 ?v9) ?v8) f1))) (= (f26 (f27 ?v3 ?v4) ?v8) f1))))))) (= (f6 (f10 ?v1) (f4 (f12 (f13 (f14 (f15 f16 ?v0) ?v2) ?v3)) f22)) f1))))
(assert (forall ((?v0 S12) (?v1 S16) (?v2 S16)) (=> (= (f46 (f23 f24 (f25 ?v0)) ?v1 ?v2) f1) (= (f46 (f18 f19 ?v0) ?v1 ?v2) f1))))
(assert (forall ((?v0 S12) (?v1 S16) (?v2 S16)) (=> (= (f46 (f18 f19 ?v0) ?v1 ?v2) f1) (=> (=> (= (f46 (f23 f24 (f25 ?v0)) ?v1 ?v2) f1) false) false))))
(assert (forall ((?v0 S12) (?v1 S16) (?v2 S18) (?v3 S16)) (=> (= (f47 (f23 f24 (f25 ?v0)) ?v1 ?v2 ?v3) f1) (= (f47 (f18 f19 ?v0) ?v1 (f29 f30 (+ (f31 f32 ?v2) 1)) ?v3) f1))))
(assert (forall ((?v0 S3)) (= (not (= ?v0 f22)) (exists ((?v1 S2) (?v2 S3)) (and (= ?v0 (f4 (f12 ?v1) ?v2)) (not (= (f6 (f7 ?v1) ?v2) f1)))))))
(assert (forall ((?v0 S2)) (= (= (f3 f22 ?v0) f1) (= (f6 (f7 ?v0) f22) f1))))
(assert (forall ((?v0 S18) (?v1 S7) (?v2 S9) (?v3 S7)) (= (= (f3 (f28 ?v0) (f13 (f14 (f15 f16 ?v1) ?v2) ?v3)) f1) (forall ((?v4 S15) (?v5 S16)) (=> (= (f26 (f27 ?v1 ?v4) ?v5) f1) (forall ((?v6 S16)) (=> (= (f47 ?v2 ?v5 ?v0 ?v6) f1) (= (f26 (f27 ?v3 ?v4) ?v6) f1))))))))
(assert (forall ((?v0 S9) (?v1 S16) (?v2 S18) (?v3 S16) (?v4 S9) (?v5 S16)) (=> (= (f47 ?v0 ?v1 ?v2 ?v3) f1) (=> (= (f47 ?v4 ?v3 ?v2 ?v5) f1) (= (f47 (f42 (f43 f44 ?v0) ?v4) ?v1 ?v2 ?v5) f1)))))
(assert (forall ((?v0 S16) (?v1 S18) (?v2 S16)) (=> (= (f47 f41 ?v0 ?v1 ?v2) f1) (=> (=> (= ?v2 ?v0) false) false))))
(assert (forall ((?v0 S16) (?v1 S18)) (= (f47 f41 ?v0 ?v1 ?v0) f1)))
(assert (forall ((?v0 S9) (?v1 S16) (?v2 S16) (?v3 S9) (?v4 S16)) (=> (= (f46 ?v0 ?v1 ?v2) f1) (=> (= (f46 ?v3 ?v2 ?v4) f1) (= (f46 (f42 (f43 f44 ?v0) ?v3) ?v1 ?v4) f1)))))
(assert (forall ((?v0 S16) (?v1 S16)) (=> (= (f46 f41 ?v0 ?v1) f1) (=> (=> (= ?v1 ?v0) false) false))))
(assert (forall ((?v0 S16)) (= (f46 f41 ?v0 ?v0) f1)))
(assert (forall ((?v0 S9) (?v1 S16) (?v2 S18) (?v3 S16) (?v4 S18)) (=> (= (f47 ?v0 ?v1 ?v2 ?v3) f1) (=> (<= (f31 f32 ?v2) (f31 f32 ?v4)) (= (f47 ?v0 ?v1 ?v4 ?v3) f1)))))
(assert (forall ((?v0 S2) (?v1 S3)) (= (= (f6 (f7 ?v0) ?v1) f1) (= (f3 ?v1 ?v0) f1))))
(assert (forall ((?v0 S3)) (= (f36 ?v0) ?v0)))
(assert (forall ((?v0 S9) (?v1 S16) (?v2 S18) (?v3 S16)) (=> (= (f47 ?v0 ?v1 ?v2 ?v3) f1) (= (f47 ?v0 ?v1 (f29 f30 (+ (f31 f32 ?v2) 1)) ?v3) f1))))
(assert (forall ((?v0 S9) (?v1 S16) (?v2 S18) (?v3 S16)) (=> (= (f47 ?v0 ?v1 ?v2 ?v3) f1) (= (f46 ?v0 ?v1 ?v3) f1))))
(assert (forall ((?v0 S9) (?v1 S16) (?v2 S16) (?v3 S16)) (=> (= (f46 ?v0 ?v1 ?v2) f1) (=> (= (f46 ?v0 ?v1 ?v3) f1) (= ?v3 ?v2)))))
(assert (forall ((?v0 S9) (?v1 S16) (?v2 S16)) (= (= (f46 ?v0 ?v1 ?v2) f1) (exists ((?v3 S18)) (= (f47 ?v0 ?v1 ?v3 ?v2) f1)))))
(assert (forall ((?v0 S12) (?v1 S16) (?v2 S18) (?v3 S16)) (=> (= (f47 (f18 f19 ?v0) ?v1 ?v2 ?v3) f1) (=> (forall ((?v4 S18)) (=> (= ?v2 (f29 f30 (+ (f31 f32 ?v4) 1))) (=> (= (f47 (f23 f24 (f25 ?v0)) ?v1 ?v4 ?v3) f1) false))) false))))
(assert (forall ((?v0 S9) (?v1 S9) (?v2 S16) (?v3 S16)) (=> (= (f46 (f42 (f43 f44 ?v0) ?v1) ?v2 ?v3) f1) (=> (forall ((?v4 S16)) (=> (= (f46 ?v0 ?v2 ?v4) f1) (=> (= (f46 ?v1 ?v4 ?v3) f1) false))) false))))
(assert (forall ((?v0 S9) (?v1 S9) (?v2 S16) (?v3 S18) (?v4 S16)) (=> (= (f47 (f42 (f43 f44 ?v0) ?v1) ?v2 ?v3 ?v4) f1) (=> (forall ((?v5 S16)) (=> (= (f47 ?v0 ?v2 ?v3 ?v5) f1) (=> (= (f47 ?v1 ?v5 ?v3 ?v4) f1) false))) false))))
(assert (forall ((?v0 S9) (?v1 S16) (?v2 S16)) (=> (= (f46 ?v0 ?v1 ?v2) f1) (exists ((?v3 S18)) (= (f47 ?v0 ?v1 ?v3 ?v2) f1)))))
(assert (forall ((?v0 S9) (?v1 S16) (?v2 S18) (?v3 S16) (?v4 S9) (?v5 S16) (?v6 S18) (?v7 S16)) (=> (= (f47 ?v0 ?v1 ?v2 ?v3) f1) (=> (= (f47 ?v4 ?v5 ?v6 ?v7) f1) (exists ((?v8 S18)) (and (= (f47 ?v0 ?v1 ?v8 ?v3) f1) (= (f47 ?v4 ?v5 ?v8 ?v7) f1)))))))
(assert (forall ((?v0 S27) (?v1 S2) (?v2 S2)) (= (= (f3 (f4 (f48 ?v0) (f4 (f12 ?v1) f22)) ?v2) f1) (= ?v1 ?v2))))
(assert (forall ((?v0 S27) (?v1 S3) (?v2 S2)) (=> (= (f3 (f4 (f48 ?v0) ?v1) ?v2) f1) (not (= ?v1 f22)))))
(assert (forall ((?v0 S27) (?v1 S2)) (=> (= (f3 (f4 (f48 ?v0) f22) ?v1) f1) false)))
(assert (forall ((?v0 S27) (?v1 S2) (?v2 S3) (?v3 S2)) (=> (= (f3 (f4 (f49 (f50 ?v0) ?v1) ?v2) ?v3) f1) (=> (not (= (f6 (f7 ?v1) ?v2) f1)) (= (f3 (f4 (f48 ?v0) (f4 (f12 ?v1) ?v2)) ?v3) f1)))))
(assert (forall ((?v0 S27) (?v1 S24) (?v2 S2)) (=> (= (f51 ?v0 ?v1) f1) (= (f38 ?v1 (f4 (f12 ?v2) f22)) ?v2))))
(assert (forall ((?v0 S27) (?v1 S2) (?v2 S3) (?v3 S2)) (=> (= (f3 (f4 (f48 ?v0) (f4 (f12 ?v1) ?v2)) ?v3) f1) (=> (forall ((?v4 S2) (?v5 S3)) (=> (= (f4 (f12 ?v1) ?v2) (f4 (f12 ?v4) ?v5)) (=> (= (f3 (f4 (f49 (f50 ?v0) ?v4) ?v5) ?v3) f1) (=> (not (= (f6 (f7 ?v4) ?v5) f1)) false)))) false))))
(assert (forall ((?v0 S27) (?v1 S2) (?v2 S2)) (=> (= (f3 (f4 (f49 (f50 ?v0) ?v1) f22) ?v2) f1) (=> (=> (= ?v2 ?v1) false) false))))
(assert (forall ((?v0 S27) (?v1 S2)) (= (f3 (f4 (f49 (f50 ?v0) ?v1) f22) ?v1) f1)))
(assert (forall ((?v0 S2) (?v1 S3) (?v2 S27) (?v3 S2) (?v4 S2)) (let ((?v_0 (f49 (f50 ?v2) ?v3))) (=> (not (= (f6 (f7 ?v0) ?v1) f1)) (=> (= (f3 (f4 ?v_0 ?v1) ?v4) f1) (= (f3 (f4 ?v_0 (f4 (f12 ?v0) ?v1)) (f52 (f53 ?v2 ?v0) ?v4)) f1))))))
(assert (forall ((?v0 S27) (?v1 S3) (?v2 S2)) (= (= (f3 (f4 (f48 ?v0) ?v1) ?v2) f1) (exists ((?v3 S2) (?v4 S3) (?v5 S2)) (and (= ?v1 (f4 (f12 ?v3) ?v4)) (and (= ?v2 ?v5) (and (= (f3 (f4 (f49 (f50 ?v0) ?v3) ?v4) ?v5) f1) (not (= (f6 (f7 ?v3) ?v4) f1)))))))))
(assert (forall ((?v0 S27) (?v1 S2) (?v2 S3) (?v3 S2)) (= (= (f3 (f4 (f49 (f50 ?v0) ?v1) ?v2) ?v3) f1) (or (and (= ?v2 f22) (= ?v3 ?v1)) (exists ((?v4 S2) (?v5 S3) (?v6 S2)) (and (= ?v2 (f4 (f12 ?v4) ?v5)) (and (= ?v3 (f52 (f53 ?v0 ?v4) ?v6)) (and (not (= (f6 (f7 ?v4) ?v5) f1)) (= (f3 (f4 (f49 (f50 ?v0) ?v1) ?v5) ?v6) f1)))))))))
(assert (forall ((?v0 S27) (?v1 S24) (?v2 S3) (?v3 S2)) (=> (= (f51 ?v0 ?v1) f1) (=> (= (f54 ?v2) f1) (=> (not (= (f6 (f7 ?v3) ?v2) f1)) (=> (not (= ?v2 f22)) (= (f38 ?v1 (f4 (f12 ?v3) ?v2)) (f52 (f53 ?v0 ?v3) (f38 ?v1 ?v2)))))))))
(assert (forall ((?v0 S27) (?v1 S24) (?v2 S3)) (=> (= (f51 ?v0 ?v1) f1) (=> (= (f54 ?v2) f1) (=> (not (= ?v2 f22)) (=> (forall ((?v3 S2) (?v4 S2)) (= (f6 (f7 (f52 (f53 ?v0 ?v3) ?v4)) (f4 (f12 ?v3) (f4 (f12 ?v4) f22))) f1)) (= (f6 (f7 (f38 ?v1 ?v2)) ?v2) f1)))))))
(assert (forall ((?v0 S27) (?v1 S2) (?v2 S2) (?v3 S3) (?v4 S2)) (=> (= (f55 ?v0) f1) (=> (= (f3 (f4 (f49 (f50 ?v0) ?v1) (f4 (f12 ?v2) ?v3)) ?v4) f1) (=> (not (= (f6 (f7 ?v2) ?v3) f1)) (=> (forall ((?v5 S2)) (=> (= ?v4 (f52 (f53 ?v0 ?v2) ?v5)) (=> (= (f3 (f4 (f49 (f50 ?v0) ?v1) ?v3) ?v5) f1) false))) false))))))
(assert (= (f54 f22) f1))
(assert (forall ((?v0 S3) (?v1 S2)) (=> (= (f54 ?v0) f1) (= (f54 (f4 (f12 ?v1) ?v0)) f1))))
(assert (forall ((?v0 S27) (?v1 S2) (?v2 S2) (?v3 S2)) (let ((?v_1 (f53 ?v0 ?v1)) (?v_0 (f53 ?v0 ?v2))) (=> (= (f55 ?v0) f1) (= (f52 ?v_1 (f52 ?v_0 ?v3)) (f52 ?v_0 (f52 ?v_1 ?v3)))))))
(assert (forall ((?v0 S2) (?v1 S3)) (= (= (f54 (f4 (f12 ?v0) ?v1)) f1) (= (f54 ?v1) f1))))
(assert (forall ((?v0 S27) (?v1 S2) (?v2 S3) (?v3 S2) (?v4 S2)) (let ((?v_0 (f4 (f49 (f50 ?v0) ?v1) ?v2))) (=> (= (f55 ?v0) f1) (=> (= (f3 ?v_0 ?v3) f1) (=> (= (f3 ?v_0 ?v4) f1) (= ?v4 ?v3)))))))
(assert (forall ((?v0 S3) (?v1 S27)) (=> (= (f54 ?v0) f1) (=> (not (= ?v0 f22)) (exists ((?v2 S2)) (= (f3 (f4 (f48 ?v1) ?v0) ?v2) f1))))))
(assert (forall ((?v0 S3) (?v1 S5)) (=> (= (f54 ?v0) f1) (=> (= (f6 ?v1 f22) f1) (=> (forall ((?v2 S2) (?v3 S3)) (=> (= (f54 ?v3) f1) (=> (not (= (f6 (f7 ?v2) ?v3) f1)) (=> (= (f6 ?v1 ?v3) f1) (= (f6 ?v1 (f4 (f12 ?v2) ?v3)) f1))))) (= (f6 ?v1 ?v0) f1))))))
(assert (forall ((?v0 S3)) (= (= (f54 ?v0) f1) (or (= ?v0 f22) (exists ((?v1 S3) (?v2 S2)) (and (= ?v0 (f4 (f12 ?v2) ?v1)) (= (f54 ?v1) f1)))))))
(assert (forall ((?v0 S3) (?v1 S27) (?v2 S2)) (=> (= (f54 ?v0) f1) (exists ((?v3 S2)) (= (f3 (f4 (f49 (f50 ?v1) ?v2) ?v0) ?v3) f1)))))
(assert (forall ((?v0 S27) (?v1 S24) (?v2 S3) (?v3 S2)) (=> (= (f56 ?v0 ?v1) f1) (=> (= (f54 ?v2) f1) (=> (not (= ?v2 f22)) (= (f38 ?v1 (f4 (f12 ?v3) ?v2)) (f52 (f53 ?v0 ?v3) (f38 ?v1 ?v2))))))))
(assert (forall ((?v0 S27) (?v1 S24) (?v2 S2)) (=> (= (f56 ?v0 ?v1) f1) (= (f52 (f53 ?v0 ?v2) ?v2) ?v2))))
(assert (forall ((?v0 S27) (?v1 S24) (?v2 S3) (?v3 S2)) (let ((?v_0 (f38 ?v1 ?v2))) (=> (= (f56 ?v0 ?v1) f1) (=> (= (f54 ?v2) f1) (=> (= (f6 (f7 ?v3) ?v2) f1) (= (f52 (f53 ?v0 ?v3) ?v_0) ?v_0)))))))
(assert (forall ((?v0 S3) (?v1 S5)) (=> (= (f54 ?v0) f1) (=> (not (= ?v0 f22)) (=> (forall ((?v2 S2)) (= (f6 ?v1 (f4 (f12 ?v2) f22)) f1)) (=> (forall ((?v2 S2) (?v3 S3)) (=> (= (f54 ?v3) f1) (=> (not (= ?v3 f22)) (=> (not (= (f6 (f7 ?v2) ?v3) f1)) (=> (= (f6 ?v1 ?v3) f1) (= (f6 ?v1 (f4 (f12 ?v2) ?v3)) f1)))))) (= (f6 ?v1 ?v0) f1)))))))
(assert (forall ((?v0 S27) (?v1 S24) (?v2 S3) (?v3 S2)) (let ((?v_0 (f12 ?v3))) (let ((?v_1 (f4 (f57 ?v2) (f4 ?v_0 f22)))) (=> (= (f51 ?v0 ?v1) f1) (=> (= (f54 ?v2) f1) (= (f38 ?v1 (f4 ?v_0 ?v2)) (ite (= ?v_1 f22) ?v3 (f52 (f53 ?v0 ?v3) (f38 ?v1 ?v_1))))))))))
(assert (forall ((?v0 S27) (?v1 S24) (?v2 S3) (?v3 S2)) (let ((?v_0 (f4 (f57 ?v2) (f4 (f12 ?v3) f22)))) (=> (= (f51 ?v0 ?v1) f1) (=> (= (f54 ?v2) f1) (=> (= (f6 (f7 ?v3) ?v2) f1) (= (f38 ?v1 ?v2) (ite (= ?v_0 f22) ?v3 (f52 (f53 ?v0 ?v3) (f38 ?v1 ?v_0))))))))))
(assert (forall ((?v0 S2) (?v1 S3) (?v2 S3)) (let ((?v_0 (f7 ?v0))) (=> (= (f6 ?v_0 (f4 (f57 ?v1) ?v2)) f1) (=> (=> (= (f6 ?v_0 ?v1) f1) (=> (not (= (f6 ?v_0 ?v2) f1)) false)) false)))))
(assert (forall ((?v0 S2) (?v1 S3) (?v2 S3)) (let ((?v_0 (f7 ?v0))) (=> (= (f6 ?v_0 ?v1) f1) (=> (not (= (f6 ?v_0 ?v2) f1)) (= (f6 ?v_0 (f4 (f57 ?v1) ?v2)) f1))))))
(assert (forall ((?v0 S3) (?v1 S3)) (=> (= (f54 ?v0) f1) (= (f54 (f4 (f57 ?v0) ?v1)) f1))))
(assert (forall ((?v0 S18)) (= (f29 f30 (f31 f32 ?v0)) ?v0)))
(assert (forall ((?v0 Int)) (=> (<= 0 ?v0) (= (f31 f32 (f29 f30 ?v0)) ?v0))))
(assert (forall ((?v0 Int)) (=> (< ?v0 0) (= (f31 f32 (f29 f30 ?v0)) 0))))
(check-sat)
(exit)
